100 8
814 530
694 853
788 389
540 592
561 964
481 714
284 481
626 869
288 380
652 390
340 691
803 344
425 691
545 803
494 146
615 854
157 125
882 183
255 630
429 758
447 784
144 568
447 637
779 505
425 221
778 351
421 339
535 693
461 823
399 349
858 418
890 486
489 412
547 238
765 322
746 258
368 598
173 667
615 267
359 461
582 800
730 329
209 595
131 753
451 444
295 235
148 603
487 727
236 125
488 407
516 676
620 169
153 415
300 800
726 259
365 532
50 86
716 368
413 418
503 836
526 938
690 233
869 297
82 32
508 625
563 129
374 589
872 318
245 731
172 746
568 767
716 192
554 272
90 190
139 201
583 169
716 433
807 165
557 319
349 313
885 433
766 466
763 320
475 314
605 779
384 342
613 889
867 300
527 420
753 381
610 753
98 195
804 320
169 558
849 155
814 369
462 242
747 549
600 832
325 259
